% demand
num_movements = 30;
loading_factor = [1050, 1000, 1350, 1850, 1000, 1000, 1000, 1800, 1150, 1800, 950, 1050, 1000, 1650, 900, 1600, 1850, 1200, 800, 1000, 1200, 2000, 900, 1550, 1100, 1450, 1750, 1200, 1900, 1400];
pickup_time = [0, 0, 0, 0, 0, 0, 0, 0, 1, 1, 2, 2, 2, 2, 2, 2, 2, 2, 2, 3, 3, 3, 3, 3, 3, 4, 5, 5, 6, 6];
delivery_time = [1, 1, 1, 1, 1, 2, 1, 1, 2, 2, 3, 7, 3, 3, 3, 3, 3, 3, 3, 6, 5, 5, 5, 6, 5, 7, 7, 6, 7, 7];

% transporter definition
total_capacity = 11000;
num_decks = 4;
capacity = [3000, 3000, 1000, 4000];

% ways out of decks
num_ways_out = 2;
paths_out = array3d(decks, ways_out, decks, [
% ways out of deck d1
2, 4, 0, 0, 3, 4, 0, 0, 

% ways out of deck d2
4, 0, 0, 0, 0, 0, 0, 0,	

% ways out of deck d3
4, 0, 0, 0, 0, 0, 0, 0,	

% ways out of deck d4
0, 0, 0, 0,	0, 0, 0, 0,	

]);

